p edge 102 138
n 0
n 1
n 2
n 3
n 4
n 5
n 6
n 7
n 8
n 9
n 10
n 11
n 12
n 13
n 14
n 15
n 16
n 17
n 18
n 19
n 20
n 21
n 22
n 23
n 24
n 25
n 26
n 27
n 28
n 29
n 30
n 31
n 32
n 33
n 34
n 35
n 36
n 37
n 38
n 39
n 40
n 41
n 42
n 43
n 44
n 45
n 46
n 47
n 48
n 49
n 50
n 51
n 52
n 53
n 54
n 55
n 56
n 57
n 58
n 59
n 60
n 61
n 62
n 63
n 64
n 65
n 66
n 67
n 68
n 69
n 70
n 71
n 72
n 73
n 74
n 75
n 76
n 77
n 78
n 79
n 80
n 81
n 82
n 83
n 84
n 85
n 86
n 87
n 88
n 89
n 90
n 91
n 92
n 93
n 94
n 95
n 96
n 97
n 98
n 99
n 100
n 101
e 1 0
e 2 0
e 4 2
e 5 1
e 6 1
e 8 3
e 10 5
e 11 9
e 12 9
e 14 6
e 15 7
e 16 7
e 17 8
e 18 8
e 19 10
e 20 10
e 21 4
e 22 4
e 23 14
e 24 14
e 25 12
e 26 12
e 27 13
e 28 13
e 29 11
e 30 11
e 31 18
e 34 15
e 36 20
e 37 17
e 40 21
e 42 16
e 43 19
e 44 19
e 46 25
e 47 24
e 48 24
e 49 22
e 51 27
e 54 23
e 55 21
e 56 3
e 57 17
e 57 38
e 58 7
e 58 56
e 58 57
e 59 50
e 60 23
e 60 53
e 60 59
e 61 32
e 62 52
e 62 61
e 63 16
e 63 41
e 64 15
e 64 33
e 64 63
e 65 18
e 65 61
e 66 2
e 66 3
e 66 65
e 67 55
e 67 56
e 68 6
e 68 13
e 68 67
e 69 5
e 69 9
e 70 22
e 70 59
e 70 69
e 71 20
e 71 35
e 72 27
e 72 62
e 72 71
e 73 39
e 73 55
e 74 25
e 74 45
e 74 73
e 76 75
e 77 75
e 78 77
e 79 77
e 80 76
e 81 76
e 82 78
e 83 78
e 84 80
e 85 80
e 86 29
e 86 30
e 86 84
e 87 26
e 87 84
e 88 28
e 88 81
e 89 81
e 90 33
e 90 34
e 90 82
e 91 41
e 91 42
e 91 82
e 92 37
e 92 38
e 92 83
e 93 31
e 93 32
e 93 83
e 94 43
e 94 44
e 94 85
e 95 35
e 95 36
e 95 85
e 96 39
e 96 40
e 96 79
e 97 49
e 97 50
e 97 79
e 98 53
e 98 54
e 98 89
e 99 47
e 99 48
e 99 89
e 100 45
e 100 46
e 100 87
e 101 51
e 101 52
e 101 88
